c Result of efficient AIG-to-CNF conversion using package CNF
p cnf 462 1866
-2 3 295 0
-2 -3 -295 0
2 -3 295 0
2 3 -295 0
-3 4 207 0
-3 -4 -207 0
3 -4 207 0
3 4 -207 0
-4 -5 -175 0
-4 5 175 0
4 5 -175 0
4 -5 175 0
-5 -6 -138 0
-5 6 138 0
5 6 -138 0
5 -6 138 0
-6 7 104 0
-6 -7 -104 0
6 -7 104 0
6 7 -104 0
-7 -8 -103 0
-7 8 103 0
7 8 -103 0
7 -8 103 0
-8 9 70 0
-8 -9 -70 0
8 -9 70 0
8 9 -70 0
-9 10 67 0
-9 -10 -67 0
9 -10 67 0
9 10 -67 0
-10 11 42 0
-10 -11 -42 0
10 -11 42 0
10 11 -42 0
-11 12 28 0
-11 -12 -28 0
11 -12 28 0
11 12 -28 0
-12 13 18 0
-12 -13 -18 0
12 -13 18 0
12 13 -18 0
-13 -14 -17 0
-13 14 17 0
13 14 -17 0
13 -14 17 0
-14 -15 -16 0
-14 15 16 0
14 15 -16 0
14 -15 16 0
15 -442 -453 0
-15 442 0
-15 453 0
16 -457 -458 0
-16 457 0
-16 458 0
17 -452 -459 0
-17 452 0
-17 459 0
-18 19 26 0
-18 20 21 0
-18 20 26 0
-18 19 21 0
18 -19 -20 0
18 -21 -26 0
19 -442 -456 0
-19 442 0
-19 456 0
20 -442 -444 -456 -458 0
-20 458 0
-20 442 0
-20 456 0
-20 444 0
-21 -22 -25 0
-21 22 25 0
21 22 -25 0
21 -22 25 0
-22 -23 -24 0
-22 23 24 0
22 23 -24 0
22 -23 24 0
23 -453 -458 0
-23 453 0
-23 458 0
24 -457 -459 0
-24 457 0
-24 459 0
25 -450 -452 0
-25 450 0
-25 452 0
-26 27 0
26 -27 0
27 -19 20 0
-27 19 0
-27 -20 0
-28 29 36 0
-28 -29 -36 0
28 -29 36 0
28 29 -36 0
-29 30 31 0
-29 -30 -31 0
29 -30 31 0
29 30 -31 0
-30 23 25 0
-30 24 25 0
-30 23 24 0
30 -23 -24 0
30 -24 -25 0
30 -23 -25 0
-31 -32 -35 0
-31 32 35 0
31 32 -35 0
31 -32 35 0
-32 -33 -34 0
-32 33 34 0
32 33 -34 0
32 -33 34 0
33 -450 -461 0
-33 450 0
-33 461 0
34 -447 -448 0
-34 447 0
-34 448 0
35 -445 -446 0
-35 445 0
-35 446 0
-36 37 40 0
-36 37 41 0
36 -37 0
36 -40 -41 0
37 -38 -39 0
-37 38 0
-37 39 0
38 -448 -461 0
-38 448 0
-38 461 0
39 -446 -447 0
-39 446 0
-39 447 0
40 -445 -460 0
-40 445 0
-40 460 0
-41 -38 -39 0
-41 38 39 0
41 38 -39 0
41 -38 39 0
-42 43 44 0
-42 44 59 0
-42 43 59 0
42 -43 -59 0
42 -44 -59 0
42 -43 -44 0
-43 21 26 0
-43 -21 -26 0
43 -21 26 0
43 21 -26 0
-44 45 48 0
-44 48 54 0
-44 45 54 0
44 -45 -54 0
44 -48 -54 0
44 -45 -48 0
-45 -46 -47 0
-45 46 47 0
45 46 -47 0
45 -46 47 0
46 -442 -444 0
-46 442 0
-46 444 0
47 -456 -458 0
-47 456 0
-47 458 0
-48 49 50 0
-48 49 51 0
48 -49 0
48 -50 -51 0
49 -442 -444 -451 -458 0
-49 458 0
-49 442 0
-49 451 0
-49 444 0
50 -456 -459 0
-50 456 0
-50 459 0
-51 -52 -53 0
-51 52 53 0
51 52 -53 0
51 -52 53 0
52 -442 -451 0
-52 442 0
-52 451 0
53 -444 -458 0
-53 444 0
-53 458 0
-54 -55 -58 0
-54 55 58 0
54 55 -58 0
54 -55 58 0
-55 -56 -57 0
-55 56 57 0
55 56 -57 0
55 -56 57 0
56 -453 -459 0
-56 453 0
-56 459 0
57 -450 -457 0
-57 450 0
-57 457 0
58 -448 -452 0
-58 448 0
-58 452 0
-59 60 63 0
-59 -60 -63 0
59 -60 63 0
59 60 -63 0
-60 61 62 0
-60 -61 -62 0
60 -61 62 0
60 61 -62 0
-61 56 58 0
-61 57 58 0
-61 56 57 0
61 -56 -57 0
61 -57 -58 0
61 -56 -58 0
-62 40 41 0
-62 -40 -41 0
62 -40 41 0
62 40 -41 0
-63 64 66 0
-63 65 66 0
-63 64 65 0
63 -64 -65 0
63 -65 -66 0
63 -64 -66 0
64 -446 -461 0
-64 446 0
-64 461 0
65 -447 -460 0
-65 447 0
-65 460 0
66 -445 -455 0
-66 445 0
-66 455 0
-67 -68 -69 0
-67 68 69 0
67 68 -69 0
67 -68 69 0
-68 61 62 0
-68 62 63 0
-68 61 63 0
68 -61 -63 0
68 -62 -63 0
68 -61 -62 0
69 -443 -460 0
-69 443 0
-69 460 0
-70 71 73 0
-70 73 100 0
-70 71 100 0
70 -71 -100 0
70 -73 -100 0
70 -71 -73 0
-71 59 72 0
-71 -59 -72 0
71 -59 72 0
71 59 -72 0
-72 43 44 0
-72 -43 -44 0
72 -43 44 0
72 43 -44 0
-73 74 76 0
-73 76 89 0
-73 74 89 0
73 -74 -89 0
73 -76 -89 0
73 -74 -76 0
-74 54 75 0
-74 -54 -75 0
74 -54 75 0
74 54 -75 0
-75 45 48 0
-75 -45 -48 0
75 -45 48 0
75 45 -48 0
-76 77 78 0
-76 78 84 0
-76 77 84 0
76 -77 -84 0
76 -78 -84 0
76 -77 -78 0
-77 50 51 0
-77 -50 -51 0
77 -50 51 0
77 50 -51 0
-78 79 80 0
-78 79 81 0
78 -79 0
78 -80 -81 0
79 -444 -451 -458 -459 0
-79 459 0
-79 444 0
-79 458 0
-79 451 0
80 -450 -456 0
-80 450 0
-80 456 0
-81 -82 -83 0
-81 82 83 0
81 82 -83 0
81 -82 83 0
82 -451 -458 0
-82 451 0
-82 458 0
83 -444 -459 0
-83 444 0
-83 459 0
-84 -85 -88 0
-84 85 88 0
84 85 -88 0
84 -85 88 0
-85 -86 -87 0
-85 86 87 0
85 86 -87 0
85 -86 87 0
86 -450 -453 0
-86 450 0
-86 453 0
87 -448 -457 0
-87 448 0
-87 457 0
88 -446 -452 0
-88 446 0
-88 452 0
-89 90 94 0
-89 -90 -94 0
89 -90 94 0
89 90 -94 0
-90 91 92 0
-90 -91 -92 0
90 -91 92 0
90 91 -92 0
-91 86 88 0
-91 87 88 0
-91 86 87 0
91 -86 -87 0
91 -87 -88 0
91 -86 -88 0
-92 66 93 0
-92 -66 -93 0
92 -66 93 0
92 66 -93 0
-93 -64 -65 0
-93 64 65 0
93 64 -65 0
93 -64 65 0
-94 95 98 0
-94 95 99 0
94 -95 0
94 -98 -99 0
95 -96 -97 0
-95 96 0
-95 97 0
96 -460 -461 0
-96 460 0
-96 461 0
97 -447 -455 0
-97 447 0
-97 455 0
98 -445 -449 0
-98 445 0
-98 449 0
-99 -96 -97 0
-99 96 97 0
99 96 -97 0
99 -96 97 0
-100 101 102 0
-100 -101 -102 0
100 -101 102 0
100 101 -102 0
101 -443 -455 0
-101 443 0
-101 455 0
-102 91 92 0
-102 92 94 0
-102 91 94 0
102 -91 -94 0
102 -92 -94 0
102 -91 -92 0
103 -101 -102 0
-103 101 0
-103 102 0
-104 105 107 0
-104 107 137 0
-104 105 137 0
104 -107 -137 0
104 -105 -107 0
104 -105 -137 0
-105 100 106 0
-105 -100 -106 0
105 -100 106 0
105 100 -106 0
-106 71 73 0
-106 -71 -73 0
106 -71 73 0
106 71 -73 0
-107 108 110 0
-107 110 134 0
-107 108 134 0
107 -108 -134 0
107 -110 -134 0
107 -108 -110 0
-108 89 109 0
-108 -89 -109 0
108 -89 109 0
108 89 -109 0
-109 74 76 0
-109 -74 -76 0
109 -74 76 0
109 74 -76 0
-110 111 113 0
-110 113 126 0
-110 111 126 0
110 -111 -126 0
110 -113 -126 0
110 -111 -113 0
-111 84 112 0
-111 -84 -112 0
111 -84 112 0
111 84 -112 0
-112 77 78 0
-112 -77 -78 0
112 -77 78 0
112 77 -78 0
-113 114 115 0
-113 115 121 0
-113 114 121 0
113 -114 -121 0
113 -115 -121 0
113 -114 -115 0
-114 80 81 0
-114 -80 -81 0
114 -80 81 0
114 80 -81 0
-115 116 117 0
-115 116 118 0
115 -116 0
115 -117 -118 0
116 -444 -450 -451 -459 0
-116 459 0
-116 444 0
-116 451 0
-116 450 0
117 -448 -456 0
-117 448 0
-117 456 0
-118 -119 -120 0
-118 119 120 0
118 119 -120 0
118 -119 120 0
119 -451 -459 0
-119 451 0
-119 459 0
120 -444 -450 0
-120 444 0
-120 450 0
-121 -122 -125 0
-121 122 125 0
121 122 -125 0
121 -122 125 0
-122 -123 -124 0
-122 123 124 0
122 123 -124 0
122 -123 124 0
123 -448 -453 0
-123 448 0
-123 453 0
124 -446 -457 0
-124 446 0
-124 457 0
125 -452 -460 0
-125 452 0
-125 460 0
-126 127 130 0
-126 -127 -130 0
126 -127 130 0
126 127 -130 0
-127 128 129 0
-127 -128 -129 0
127 -128 129 0
127 128 -129 0
-128 123 125 0
-128 124 125 0
-128 123 124 0
128 -123 -124 0
128 -124 -125 0
128 -123 -125 0
-129 98 99 0
-129 -98 -99 0
129 -98 99 0
129 98 -99 0
-130 131 133 0
-130 132 133 0
-130 131 132 0
130 -131 -132 0
130 -132 -133 0
130 -131 -133 0
131 -455 -461 0
-131 455 0
-131 461 0
132 -447 -449 0
-132 447 0
-132 449 0
133 -445 -454 0
-133 445 0
-133 454 0
-134 135 136 0
-134 -135 -136 0
134 -135 136 0
134 135 -136 0
135 -443 -449 0
-135 443 0
-135 449 0
-136 128 129 0
-136 129 130 0
-136 128 130 0
136 -128 -130 0
136 -129 -130 0
136 -128 -129 0
137 -135 -136 0
-137 135 0
-137 136 0
138 -139 -141 0
-138 139 0
-138 141 0
-139 137 140 0
-139 -137 -140 0
139 -137 140 0
139 137 -140 0
-140 105 107 0
-140 -105 -107 0
140 -105 107 0
140 105 -107 0
-141 142 144 0
-141 144 174 0
-141 142 174 0
141 -144 -174 0
141 -142 -144 0
141 -142 -174 0
-142 134 143 0
-142 -134 -143 0
142 -134 143 0
142 134 -143 0
-143 108 110 0
-143 -108 -110 0
143 -108 110 0
143 108 -110 0
-144 145 147 0
-144 147 171 0
-144 145 171 0
144 -145 -171 0
144 -147 -171 0
144 -145 -147 0
-145 126 146 0
-145 -126 -146 0
145 -126 146 0
145 126 -146 0
-146 111 113 0
-146 -111 -113 0
146 -111 113 0
146 111 -113 0
-147 148 150 0
-147 150 163 0
-147 148 163 0
147 -148 -163 0
147 -150 -163 0
147 -148 -150 0
-148 121 149 0
-148 -121 -149 0
148 -121 149 0
148 121 -149 0
-149 114 115 0
-149 -114 -115 0
149 -114 115 0
149 114 -115 0
-150 151 152 0
-150 152 158 0
-150 151 158 0
150 -151 -158 0
150 -152 -158 0
150 -151 -152 0
-151 117 118 0
-151 -117 -118 0
151 -117 118 0
151 117 -118 0
-152 153 154 0
-152 153 155 0
152 -153 0
152 -154 -155 0
153 -444 -448 -450 -451 0
-153 451 0
-153 444 0
-153 450 0
-153 448 0
154 -446 -456 0
-154 446 0
-154 456 0
-155 -156 -157 0
-155 156 157 0
155 156 -157 0
155 -156 157 0
156 -450 -451 0
-156 450 0
-156 451 0
157 -444 -448 0
-157 444 0
-157 448 0
-158 -159 -162 0
-158 159 162 0
158 159 -162 0
158 -159 162 0
-159 -160 -161 0
-159 160 161 0
159 160 -161 0
159 -160 161 0
160 -446 -453 0
-160 446 0
-160 453 0
161 -457 -460 0
-161 457 0
-161 460 0
162 -452 -455 0
-162 452 0
-162 455 0
-163 -164 -168 0
-163 164 168 0
163 164 -168 0
163 -164 168 0
-164 165 166 0
-164 -165 -166 0
164 -165 166 0
164 165 -166 0
-165 160 162 0
-165 161 162 0
-165 160 161 0
165 -160 -161 0
165 -161 -162 0
165 -160 -162 0
-166 133 167 0
-166 -133 -167 0
166 -133 167 0
166 133 -167 0
-167 -131 -132 0
-167 131 132 0
167 131 -132 0
167 -131 132 0
168 -169 -170 0
-168 169 0
-168 170 0
169 -449 -461 0
-169 449 0
-169 461 0
170 -447 -454 0
-170 447 0
-170 454 0
-171 172 173 0
-171 -172 -173 0
171 -172 173 0
171 172 -173 0
172 -443 -454 0
-172 443 0
-172 454 0
-173 165 166 0
-173 166 168 0
-173 165 168 0
173 -166 -168 0
173 -165 -166 0
173 -165 -168 0
174 -172 -173 0
-174 172 0
-174 173 0
175 -176 -177 0
-175 176 0
-175 177 0
-176 139 141 0
-176 -139 -141 0
176 -139 141 0
176 139 -141 0
177 -178 -180 0
-177 178 0
-177 180 0
-178 174 179 0
-178 -174 -179 0
178 -174 179 0
178 174 -179 0
-179 142 144 0
-179 -142 -144 0
179 -142 144 0
179 142 -144 0
180 -181 -183 0
-180 181 0
-180 183 0
-181 171 182 0
-181 -171 -182 0
181 -171 182 0
181 171 -182 0
-182 145 147 0
-182 -145 -147 0
182 -145 147 0
182 145 -147 0
-183 184 186 0
-183 186 206 0
-183 184 206 0
183 -186 -206 0
183 -184 -186 0
183 -184 -206 0
-184 163 185 0
-184 -163 -185 0
184 -163 185 0
184 163 -185 0
-185 148 150 0
-185 -148 -150 0
185 -148 150 0
185 148 -150 0
-186 187 189 0
-186 189 203 0
-186 187 203 0
186 -187 -203 0
186 -189 -203 0
186 -187 -189 0
-187 158 188 0
-187 -158 -188 0
187 -158 188 0
187 158 -188 0
-188 151 152 0
-188 -151 -152 0
188 -151 152 0
188 151 -152 0
-189 191 197 0
-189 190 202 0
-189 190 197 0
-189 191 202 0
189 -197 -202 0
189 -190 -191 0
-190 154 155 0
-190 -154 -155 0
190 -154 155 0
190 154 -155 0
-191 192 193 0
-191 192 194 0
191 -192 0
191 -193 -194 0
192 -444 -446 -448 -451 0
-192 451 0
-192 444 0
-192 448 0
-192 446 0
193 -456 -460 0
-193 456 0
-193 460 0
-194 -195 -196 0
-194 195 196 0
194 195 -196 0
194 -195 196 0
195 -448 -451 0
-195 448 0
-195 451 0
196 -444 -446 0
-196 444 0
-196 446 0
-197 -198 -201 0
-197 198 201 0
197 198 -201 0
197 -198 201 0
-198 -199 -200 0
-198 199 200 0
198 199 -200 0
198 -199 200 0
199 -453 -460 0
-199 453 0
-199 460 0
200 -455 -457 0
-200 455 0
-200 457 0
201 -449 -452 0
-201 449 0
-201 452 0
-202 190 191 0
-202 -190 -191 0
202 -190 191 0
202 190 -191 0
-203 204 205 0
-203 -204 -205 0
203 -204 205 0
203 204 -205 0
-204 -169 -170 0
-204 169 170 0
204 169 -170 0
204 -169 170 0
-205 199 201 0
-205 200 201 0
-205 199 200 0
205 -199 -200 0
205 -200 -201 0
205 -199 -201 0
206 -204 -205 0
-206 204 0
-206 205 0
-207 208 209 265 0
-207 208 238 265 0
-207 209 238 265 0
207 -208 -209 0
207 -209 -238 0
207 -265 0
207 -208 -238 0
-208 -176 -177 0
-208 176 177 0
208 176 -177 0
208 -176 177 0
209 -210 -211 0
-209 210 0
-209 211 0
-210 -178 -180 0
-210 178 180 0
210 178 -180 0
210 -178 180 0
211 -212 -213 0
-211 212 0
-211 213 0
-212 181 183 0
-212 -181 -183 0
212 -181 183 0
212 181 -183 0
213 -214 -216 0
-213 214 0
-213 216 0
-214 206 215 0
-214 -206 -215 0
214 -206 215 0
214 206 -215 0
-215 184 186 0
-215 -184 -186 0
215 -184 186 0
215 184 -186 0
-216 217 219 0
-216 219 237 0
-216 217 237 0
216 -219 -237 0
216 -217 -219 0
216 -217 -237 0
-217 203 218 0
-217 -203 -218 0
217 -203 218 0
217 203 -218 0
-218 187 189 0
-218 -187 -189 0
218 -187 189 0
218 187 -189 0
-219 220 221 0
-219 221 234 0
-219 220 234 0
219 -220 -234 0
219 -221 -234 0
219 -220 -221 0
-220 197 202 0
-220 -197 -202 0
220 -197 202 0
220 197 -202 0
-221 222 223 0
-221 223 229 0
-221 222 229 0
221 -222 -229 0
221 -223 -229 0
221 -222 -223 0
-222 193 194 0
-222 -193 -194 0
222 -193 194 0
222 193 -194 0
-223 224 225 0
-223 224 226 0
223 -224 0
223 -225 -226 0
224 -444 -446 -451 -460 0
-224 460 0
-224 444 0
-224 451 0
-224 446 0
225 -455 -456 0
-225 455 0
-225 456 0
-226 -227 -228 0
-226 227 228 0
226 227 -228 0
226 -227 228 0
227 -446 -451 0
-227 446 0
-227 451 0
228 -444 -460 0
-228 444 0
-228 460 0
-229 -230 -233 0
-229 230 233 0
229 230 -233 0
229 -230 233 0
-230 -231 -232 0
-230 231 232 0
230 231 -232 0
230 -231 232 0
231 -453 -455 0
-231 453 0
-231 455 0
232 -449 -457 0
-232 449 0
-232 457 0
233 -452 -454 0
-233 452 0
-233 454 0
-234 235 236 0
-234 -235 -236 0
234 -235 236 0
234 235 -236 0
235 -454 -461 0
-235 454 0
-235 461 0
-236 231 233 0
-236 232 233 0
-236 231 232 0
236 -231 -232 0
236 -232 -233 0
236 -231 -233 0
237 -235 -236 0
-237 235 0
-237 236 0
238 -239 -240 0
-238 239 0
-238 240 0
-239 -210 -211 0
-239 210 211 0
239 210 -211 0
239 -210 211 0
240 -241 -242 0
-240 241 0
-240 242 0
-241 -212 -213 0
-241 212 213 0
241 212 -213 0
241 -212 213 0
242 -243 -244 0
-242 243 0
-242 244 0
-243 214 216 0
-243 -214 -216 0
243 -214 216 0
243 214 -216 0
244 -245 -247 0
-244 245 0
-244 247 0
-245 237 246 0
-245 -237 -246 0
245 -237 246 0
245 237 -246 0
-246 217 219 0
-246 -217 -219 0
246 -217 219 0
246 217 -219 0
247 -248 -250 0
-247 248 0
-247 250 0
-248 234 249 0
-248 -234 -249 0
248 -234 249 0
248 234 -249 0
-249 220 221 0
-249 -220 -221 0
249 -220 221 0
249 220 -221 0
-250 251 253 0
-250 253 264 0
-250 251 264 0
250 -253 -264 0
250 -251 -253 0
250 -251 -264 0
-251 229 252 0
-251 -229 -252 0
251 -229 252 0
251 229 -252 0
-252 222 223 0
-252 -222 -223 0
252 -222 223 0
252 222 -223 0
-253 254 255 0
-253 255 261 0
-253 254 261 0
253 -254 -261 0
253 -255 -261 0
253 -254 -255 0
-254 225 226 0
-254 -225 -226 0
254 -225 226 0
254 225 -226 0
-255 256 257 0
-255 256 258 0
255 -256 0
255 -257 -258 0
256 -444 -451 -455 -460 0
-256 460 0
-256 444 0
-256 455 0
-256 451 0
257 -449 -456 0
-257 449 0
-257 456 0
-258 -259 -260 0
-258 259 260 0
258 259 -260 0
258 -259 260 0
259 -451 -460 0
-259 451 0
-259 460 0
260 -444 -455 0
-260 444 0
-260 455 0
-261 -262 -263 0
-261 262 263 0
261 262 -263 0
261 -262 263 0
262 -449 -453 0
-262 449 0
-262 453 0
263 -454 -457 0
-263 454 0
-263 457 0
264 -262 -263 0
-264 262 0
-264 263 0
265 -266 -239 240 -267 0
265 -266 239 -240 -267 0
-265 267 0
-265 239 240 0
-265 266 0
-265 -239 -240 0
-266 -208 -209 0
-266 208 209 0
266 208 -209 0
266 -208 209 0
-267 269 270 0
-267 270 287 0
-267 268 0
-267 269 287 0
267 -268 -269 -287 0
267 -268 -270 -287 0
267 -268 -269 -270 0
-268 -241 -242 0
-268 241 242 0
268 241 -242 0
268 -241 242 0
-269 -243 -244 0
-269 243 244 0
269 243 -244 0
269 -243 244 0
270 -271 -272 0
-270 271 0
-270 272 0
-271 -245 -247 0
-271 245 247 0
271 245 -247 0
271 -245 247 0
272 -273 -274 0
-272 273 0
-272 274 0
-273 248 250 0
-273 -248 -250 0
273 -248 250 0
273 248 -250 0
274 -275 -277 0
-274 275 0
-274 277 0
-275 264 276 0
-275 -264 -276 0
275 -264 276 0
275 264 -276 0
-276 251 253 0
-276 -251 -253 0
276 -251 253 0
276 251 -253 0
277 -278 -280 0
-277 278 0
-277 280 0
-278 261 279 0
-278 -261 -279 0
278 -261 279 0
278 261 -279 0
-279 254 255 0
-279 -254 -255 0
279 -254 255 0
279 254 -255 0
-280 281 282 0
-280 282 286 0
-280 281 286 0
280 -282 -286 0
280 -281 -282 0
280 -281 -286 0
-281 257 258 0
-281 -257 -258 0
281 -257 258 0
281 257 -258 0
-282 283 285 0
-282 284 285 0
-282 283 284 0
282 -283 -284 0
282 -284 -285 0
282 -283 -285 0
283 -451 -455 0
-283 451 0
-283 455 0
284 -444 -449 0
-284 444 0
-284 449 0
285 -454 -456 0
-285 454 0
-285 456 0
286 -453 -454 0
-286 453 0
-286 454 0
287 -271 272 -288 -289 0
287 271 -272 -288 -289 0
-287 288 0
-287 -271 -272 0
-287 289 0
-287 271 272 0
-288 -273 -274 0
-288 273 274 0
288 273 -274 0
288 -273 274 0
289 -275 278 -280 -290 0
289 -275 -278 280 -290 0
-289 290 0
-289 278 280 0
-289 275 0
-289 -278 -280 0
290 286 -291 -292 -294 0
290 -286 291 -292 -294 0
-290 292 0
-290 286 291 0
-290 294 0
-290 -286 -291 0
-291 281 282 0
-291 -281 -282 0
291 -281 282 0
291 281 -282 0
-292 285 293 0
-292 -285 -293 0
292 -285 293 0
292 285 -293 0
-293 -283 -284 0
-293 283 284 0
293 283 -284 0
293 -283 284 0
294 -444 -449 -451 -454 0
-294 454 0
-294 444 0
-294 451 0
-294 449 0
-295 296 351 0
-295 -296 -351 0
295 -296 351 0
295 296 -351 0
-296 297 333 0
-296 -297 -333 0
296 -297 333 0
296 297 -333 0
-297 298 304 0
-297 304 318 0
-297 298 318 0
297 -298 -318 0
297 -304 -318 0
297 -298 -304 0
-298 299 303 0
-298 -299 -303 0
298 -299 303 0
298 299 -303 0
-299 300 302 0
-299 -300 -302 0
299 -300 302 0
299 300 -302 0
-300 25 301 0
-300 -25 -301 0
300 -25 301 0
300 25 -301 0
-301 -24 -40 0
-301 24 40 0
301 24 -40 0
301 -24 40 0
-302 20 41 0
-302 -20 -41 0
302 -20 41 0
302 20 -41 0
-303 49 64 0
-303 45 49 0
-303 45 64 0
303 -45 -49 0
303 -49 -64 0
303 -45 -64 0
-304 305 308 0
-304 308 314 0
-304 305 314 0
304 -305 -314 0
304 -308 -314 0
304 -305 -308 0
-305 51 306 0
-305 306 307 0
-305 51 307 0
305 -51 -307 0
305 -306 -307 0
305 -51 -306 0
-306 456 133 0
-306 450 132 0
-306 132 133 0
-306 456 132 0
-306 450 133 0
306 -132 -133 0
306 -450 -456 -133 0
306 -450 -456 -132 0
-307 123 131 0
-307 124 131 0
-307 123 124 0
307 -123 -124 0
307 -124 -131 0
307 -123 -131 0
-308 309 312 0
-308 -309 -312 0
308 -309 312 0
308 309 -312 0
-309 310 311 0
-309 -310 -311 0
309 -310 311 0
309 310 -311 0
-310 459 172 0
-310 456 98 0
-310 98 172 0
-310 459 98 0
-310 456 172 0
310 -98 -172 0
310 -456 -459 -172 0
310 -456 -459 -98 0
-311 453 88 0
-311 450 87 0
-311 87 88 0
-311 453 87 0
-311 450 88 0
311 -87 -88 0
311 -450 -453 -88 0
311 -450 -453 -87 0
-312 66 313 0
-312 -66 -313 0
312 -66 313 0
312 66 -313 0
-313 -58 -135 0
-313 58 135 0
313 58 -135 0
313 -58 135 0
-314 84 315 0
-314 315 317 0
-314 84 317 0
314 -84 -317 0
314 -315 -317 0
314 -84 -315 0
-315 98 316 0
-315 -98 -316 0
315 -98 316 0
315 98 -316 0
-316 -50 -172 0
-316 50 172 0
316 50 -172 0
316 -50 172 0
-317 79 99 0
-317 -79 -99 0
317 -79 99 0
317 79 -99 0
-318 319 327 0
-318 -319 -327 0
318 -319 327 0
318 319 -327 0
-319 320 321 0
-319 -320 -321 0
319 -320 321 0
319 320 -321 0
-320 310 311 0
-320 311 312 0
-320 310 312 0
320 -310 -312 0
320 -311 -312 0
320 -310 -311 0
-321 322 325 0
-321 -322 -325 0
321 -322 325 0
321 322 -325 0
-322 323 324 0
-322 -323 -324 0
322 -323 324 0
322 323 -324 0
-323 58 135 0
-323 66 135 0
-323 58 66 0
323 -58 -66 0
323 -66 -135 0
323 -58 -135 0
-324 56 65 0
-324 57 65 0
-324 56 57 0
324 -56 -57 0
324 -57 -65 0
324 -56 -65 0
-325 23 326 0
-325 -23 -326 0
325 -23 326 0
325 23 -326 0
-326 -19 -101 0
-326 19 101 0
326 19 -101 0
326 -19 101 0
-327 328 330 0
-327 330 331 0
-327 328 331 0
327 -328 -331 0
327 -330 -331 0
327 -328 -330 0
-328 57 329 0
-328 -57 -329 0
328 -57 329 0
328 57 -329 0
-329 -56 -65 0
-329 56 65 0
329 56 -65 0
329 -56 65 0
-330 79 97 0
-330 96 97 0
-330 79 96 0
330 -79 -96 0
330 -96 -97 0
330 -79 -97 0
-331 45 332 0
-331 -45 -332 0
331 -45 332 0
331 45 -332 0
-332 -49 -64 0
-332 49 64 0
332 49 -64 0
332 -49 64 0
-333 334 350 0
-333 -334 -350 0
333 -334 350 0
333 334 -350 0
-334 335 336 0
-334 -335 -336 0
334 -335 336 0
334 335 -336 0
-335 300 302 0
-335 302 303 0
-335 300 303 0
335 -300 -303 0
335 -302 -303 0
335 -300 -302 0
-336 337 343 0
-336 -337 -343 0
336 -337 343 0
336 337 -343 0
-337 338 339 0
-337 -338 -339 0
337 -338 339 0
337 338 -339 0
-338 323 324 0
-338 324 325 0
-338 323 325 0
338 -323 -325 0
338 -324 -325 0
338 -323 -324 0
-339 340 342 0
-339 -340 -342 0
339 -340 342 0
339 340 -342 0
-340 33 341 0
-340 -33 -341 0
340 -33 341 0
340 33 -341 0
-341 19 101 0
-341 23 101 0
-341 19 23 0
341 -19 -23 0
341 -23 -101 0
341 -19 -101 0
-342 24 40 0
-342 25 40 0
-342 24 25 0
342 -24 -25 0
342 -25 -40 0
342 -24 -40 0
-343 344 349 0
-343 -344 -349 0
343 -344 349 0
343 344 -349 0
-344 345 347 0
-344 -345 -347 0
344 -345 347 0
344 345 -347 0
-345 34 346 0
-345 -34 -346 0
345 -34 346 0
345 34 -346 0
-346 -17 -35 0
-346 17 35 0
346 17 -35 0
346 -17 35 0
-347 16 348 0
-347 -16 -348 0
347 -16 348 0
347 16 -348 0
-348 -15 -69 0
-348 15 69 0
348 15 -69 0
348 -15 69 0
-349 20 39 0
-349 38 39 0
-349 20 38 0
349 -20 -38 0
349 -38 -39 0
349 -20 -39 0
-350 320 321 0
-350 321 327 0
-350 320 327 0
350 -320 -327 0
350 -321 -327 0
350 -320 -321 0
-351 352 366 0
-351 366 368 0
-351 352 368 0
351 -352 -368 0
351 -366 -368 0
351 -352 -366 0
-352 353 355 0
-352 355 364 0
-352 353 364 0
352 -353 -364 0
352 -355 -364 0
352 -353 -355 0
-353 331 354 0
-353 -331 -354 0
353 -331 354 0
353 331 -354 0
-354 328 330 0
-354 -328 -330 0
354 -328 330 0
354 328 -330 0
-355 356 357 0
-355 357 362 0
-355 356 362 0
355 -356 -362 0
355 -357 -362 0
355 -356 -357 0
-356 116 125 0
-356 81 116 0
-356 81 125 0
356 -81 -116 0
356 -116 -125 0
356 -81 -125 0
-357 358 359 0
-357 359 360 0
-357 358 360 0
357 -358 -360 0
357 -359 -360 0
357 -358 -359 0
-358 461 170 0
-358 449 117 0
-358 117 170 0
-358 461 117 0
-358 449 170 0
358 -117 -170 0
358 -449 -461 -170 0
358 -449 -461 -117 0
-359 160 162 0
-359 161 162 0
-359 160 161 0
359 -160 -161 0
359 -161 -162 0
359 -160 -162 0
-360 132 361 0
-360 -132 -361 0
360 -132 361 0
360 132 -361 0
-361 -80 -133 0
-361 80 133 0
361 80 -133 0
361 -80 133 0
-362 307 363 0
-362 -307 -363 0
362 -307 363 0
362 307 -363 0
-363 51 306 0
-363 -51 -306 0
363 -51 306 0
363 51 -306 0
-364 314 365 0
-364 -314 -365 0
364 -314 365 0
364 314 -365 0
-365 305 308 0
-365 -305 -308 0
365 -305 308 0
365 305 -308 0
-366 318 367 0
-366 -318 -367 0
366 -318 367 0
366 318 -367 0
-367 298 304 0
-367 -298 -304 0
367 -298 304 0
367 298 -304 0
-368 369 381 0
-368 381 383 0
-368 369 383 0
368 -369 -383 0
368 -381 -383 0
368 -369 -381 0
-369 370 372 0
-369 372 379 0
-369 370 379 0
369 -370 -379 0
369 -372 -379 0
369 -370 -372 0
-370 317 371 0
-370 -317 -371 0
370 -317 371 0
370 317 -371 0
-371 84 315 0
-371 -84 -315 0
371 -84 315 0
371 84 -315 0
-372 373 375 0
-372 375 377 0
-372 373 377 0
372 -373 -377 0
372 -375 -377 0
372 -373 -375 0
-373 123 374 0
-373 -123 -374 0
373 -123 374 0
373 123 -374 0
-374 -124 -131 0
-374 124 131 0
374 124 -131 0
374 -124 131 0
-375 81 376 0
-375 -81 -376 0
375 -81 376 0
375 81 -376 0
-376 -116 -125 0
-376 116 125 0
376 116 -125 0
376 -116 125 0
-377 118 378 0
-377 118 153 0
-377 153 378 0
377 -153 -378 0
377 -118 -378 0
377 -118 -153 0
-378 154 235 0
-378 201 235 0
-378 154 201 0
378 -154 -201 0
378 -201 -235 0
378 -154 -235 0
-379 362 380 0
-379 -362 -380 0
379 -362 380 0
379 362 -380 0
-380 356 357 0
-380 -356 -357 0
380 -356 357 0
380 356 -357 0
-381 364 382 0
-381 -364 -382 0
381 -364 382 0
381 364 -382 0
-382 353 355 0
-382 -353 -355 0
382 -353 355 0
382 353 -355 0
-383 384 395 0
-383 395 397 0
-383 384 397 0
383 -384 -397 0
383 -395 -397 0
383 -384 -395 0
-384 385 387 0
-384 387 393 0
-384 385 393 0
384 -385 -393 0
384 -387 -393 0
384 -385 -387 0
-385 360 386 0
-385 -360 -386 0
385 -360 386 0
385 360 -386 0
-386 358 359 0
-386 -358 -359 0
386 -358 359 0
386 358 -359 0
-387 388 390 0
-387 390 392 0
-387 388 392 0
387 -388 -392 0
387 -390 -392 0
387 -388 -390 0
-388 161 389 0
-388 -161 -389 0
388 -161 389 0
388 161 -389 0
-389 -160 -162 0
-389 160 162 0
389 160 -162 0
389 -160 162 0
-390 169 391 0
-390 -169 -391 0
390 -169 391 0
390 169 -391 0
-391 -117 -170 0
-391 117 170 0
391 117 -170 0
391 -117 170 0
-392 192 200 0
-392 199 200 0
-392 192 199 0
392 -192 -199 0
392 -199 -200 0
392 -192 -200 0
-393 377 394 0
-393 -377 -394 0
393 -377 394 0
393 377 -394 0
-394 373 375 0
-394 -373 -375 0
394 -373 375 0
394 373 -375 0
-395 379 396 0
-395 -379 -396 0
395 -379 396 0
395 379 -396 0
-396 370 372 0
-396 -370 -372 0
396 -370 372 0
396 370 -372 0
-397 398 407 0
-397 407 409 0
-397 398 409 0
397 -398 -409 0
397 -407 -409 0
397 -398 -407 0
-398 399 401 0
-398 401 405 0
-398 399 405 0
398 -399 -405 0
398 -401 -405 0
398 -399 -401 0
-399 378 400 0
-399 -378 -400 0
399 -378 400 0
399 378 -400 0
-400 -118 -153 0
-400 118 153 0
400 118 -153 0
400 -118 153 0
-401 155 402 0
-401 402 403 0
-401 155 403 0
401 -155 -403 0
401 -402 -403 0
401 -155 -402 0
-402 193 233 0
-402 231 233 0
-402 193 231 0
402 -193 -231 0
402 -231 -233 0
402 -193 -233 0
-403 201 404 0
-403 -201 -404 0
403 -201 404 0
403 201 -404 0
-404 -154 -235 0
-404 154 235 0
404 154 -235 0
404 -154 235 0
-405 392 406 0
-405 -392 -406 0
405 -392 406 0
405 392 -406 0
-406 388 390 0
-406 -388 -390 0
406 -388 390 0
406 388 -390 0
-407 393 408 0
-407 -393 -408 0
407 -393 408 0
407 393 -408 0
-408 385 387 0
-408 -385 -387 0
408 -385 387 0
408 385 -387 0
-409 410 415 0
-409 415 417 0
-409 410 417 0
409 -410 -417 0
409 -415 -417 0
409 -410 -415 0
-410 411 412 0
-410 412 413 0
-410 411 413 0
410 -411 -413 0
410 -412 -413 0
410 -411 -412 0
-411 192 198 0
-411 -192 -198 0
411 -192 198 0
411 192 -198 0
-412 224 232 0
-412 194 224 0
-412 194 232 0
412 -194 -224 0
412 -224 -232 0
412 -194 -232 0
-413 403 414 0
-413 -403 -414 0
413 -403 414 0
413 403 -414 0
-414 155 402 0
-414 -155 -402 0
414 -155 402 0
414 155 -402 0
-415 405 416 0
-415 -405 -416 0
415 -405 416 0
415 405 -416 0
-416 399 401 0
-416 -399 -401 0
416 -399 401 0
416 399 -401 0
-417 418 424 0
-417 424 426 0
-417 418 426 0
417 -418 -426 0
417 -424 -426 0
417 -418 -424 0
-418 419 420 0
-418 420 422 0
-418 419 422 0
418 -419 -422 0
418 -420 -422 0
418 -419 -420 0
-419 225 263 0
-419 262 263 0
-419 225 262 0
419 -225 -262 0
419 -262 -263 0
419 -225 -263 0
-420 231 421 0
-420 -231 -421 0
420 -231 421 0
420 231 -421 0
-421 -193 -233 0
-421 193 233 0
421 193 -233 0
421 -193 233 0
-422 194 423 0
-422 -194 -423 0
422 -194 423 0
422 194 -423 0
-423 -224 -232 0
-423 224 232 0
423 224 -232 0
423 -224 232 0
-424 413 425 0
-424 -413 -425 0
424 -413 425 0
424 413 -425 0
-425 411 412 0
-425 -411 -412 0
425 -411 412 0
425 411 -412 0
-426 427 430 0
-426 430 432 0
-426 427 432 0
426 -427 -432 0
426 -430 -432 0
426 -427 -430 0
-427 226 428 0
-427 226 256 0
-427 256 428 0
427 -256 -428 0
427 -226 -428 0
427 -226 -256 0
-428 262 429 0
-428 -262 -429 0
428 -262 429 0
428 262 -429 0
-429 -225 -263 0
-429 225 263 0
429 225 -263 0
429 -225 263 0
-430 422 431 0
-430 -422 -431 0
430 -422 431 0
430 422 -431 0
-431 419 420 0
-431 -419 -420 0
431 -419 420 0
431 419 -420 0
-432 433 435 0
-432 435 437 0
-432 433 437 0
432 -433 -437 0
432 -435 -437 0
432 -433 -435 0
-433 257 434 0
-433 286 434 0
-433 257 286 0
433 -257 -286 0
433 -286 -434 0
433 -257 -434 0
434 -284 -285 0
-434 284 0
-434 285 0
-435 428 436 0
-435 -428 -436 0
435 -428 436 0
435 428 -436 0
-436 -226 -256 0
-436 226 256 0
436 226 -256 0
436 -226 256 0
-437 258 438 0
-437 438 440 0
-437 258 440 0
437 -258 -440 0
437 -438 -440 0
437 -258 -438 0
-438 434 439 0
-438 -434 -439 0
438 -434 439 0
438 434 -439 0
-439 -257 -286 0
-439 257 286 0
439 257 -286 0
439 -257 286 0
-440 294 441 0
-440 283 294 0
-440 283 441 0
440 -283 -294 0
440 -294 -441 0
440 -283 -441 0
-441 -284 -285 0
-441 284 285 0
441 284 -285 0
441 -284 285 0
-462 0
2 0

